Welcome to the CBC MILP Solver 
Version: Trunk
Build Date: Apr 16 2020 

Starting solution of the Linear programming relaxation problem using Primal Simplex

Using Python-MIP package version 1.8.1
Machines:  4 Jobs:  4
Order: 
Job  0 : machine 0 ( 10 ) machine 3 ( 1 ) machine 2 ( 6 ) machine 1 ( 7 ) 
Job  1 : machine 0 ( 1 ) machine 3 ( 7 ) machine 1 ( 5 ) machine 2 ( 8 ) 
Job  2 : machine 3 ( 9 ) machine 2 ( 3 ) machine 1 ( 7 ) machine 0 ( 1 ) 
Job  3 : machine 1 ( 7 ) machine 3 ( 3 ) machine 0 ( 9 ) machine 2 ( 10 ) 
K:  44
Job  0 , e: machine  0 ( 0 ) machine  1 ( 17 ) machine  2 ( 11 ) machine  3 ( 10 ) 
Job  1 , e: machine  0 ( 0 ) machine  1 ( 8 ) machine  2 ( 13 ) machine  3 ( 1 ) 
Job  2 , e: machine  0 ( 19 ) machine  1 ( 12 ) machine  2 ( 9 ) machine  3 ( 0 ) 
Job  3 , e: machine  0 ( 10 ) machine  1 ( 0 ) machine  2 ( 19 ) machine  3 ( 7 ) 
Job  0 , f: machine  0 ( 14 ) machine  1 ( 0 ) machine  2 ( 7 ) machine  3 ( 13 ) 
Job  1 , f: machine  0 ( 20 ) machine  1 ( 8 ) machine  2 ( 0 ) machine  3 ( 13 ) 
Job  2 , f: machine  0 ( 0 ) machine  1 ( 1 ) machine  2 ( 8 ) machine  3 ( 11 ) 
Job  3 , f: machine  0 ( 10 ) machine  1 ( 22 ) machine  2 ( 0 ) machine  3 ( 19 ) 
EST and LST:
Job: 0 Machine: 0 EST: 0 LST: 20
Job: 0 Machine: 1 EST: 17 LST: 37
Job: 0 Machine: 2 EST: 11 LST: 31
Job: 0 Machine: 3 EST: 10 LST: 30
Job: 1 Machine: 0 EST: 0 LST: 23
Job: 1 Machine: 1 EST: 8 LST: 31
Job: 1 Machine: 2 EST: 13 LST: 36
Job: 1 Machine: 3 EST: 1 LST: 24
Job: 2 Machine: 0 EST: 19 LST: 43
Job: 2 Machine: 1 EST: 12 LST: 36
Job: 2 Machine: 2 EST: 9 LST: 33
Job: 2 Machine: 3 EST: 0 LST: 24
Job: 3 Machine: 0 EST: 10 LST: 25
Job: 3 Machine: 1 EST: 0 LST: 15
Job: 3 Machine: 2 EST: 19 LST: 34
Job: 3 Machine: 3 EST: 7 LST: 22
Order:
Job: 0 Machine: 0 = 0 
Job: 0 Machine: 1 = 3 
Job: 0 Machine: 2 = 2 
Job: 0 Machine: 3 = 1 
Job: 1 Machine: 0 = 0 
Job: 1 Machine: 1 = 2 
Job: 1 Machine: 2 = 3 
Job: 1 Machine: 3 = 1 
Job: 2 Machine: 0 = 3 
Job: 2 Machine: 1 = 2 
Job: 2 Machine: 2 = 1 
Job: 2 Machine: 3 = 0 
Job: 3 Machine: 0 = 2 
Job: 3 Machine: 1 = 0 
Job: 3 Machine: 2 = 3 
Job: 3 Machine: 3 = 1 
Distances:
Job 0, Machine 0 -> Machine 3: distance 10
Job 0, Machine 0 -> Machine 2: distance 11
Job 0, Machine 0 -> Machine 1: distance 17
Job 0, Machine 3 -> Machine 2: distance 1
Job 0, Machine 3 -> Machine 1: distance 7
Job 0, Machine 2 -> Machine 1: distance 6
Job 1, Machine 0 -> Machine 3: distance 1
Job 1, Machine 0 -> Machine 1: distance 8
Job 1, Machine 0 -> Machine 2: distance 13
Job 1, Machine 3 -> Machine 1: distance 7
Job 1, Machine 3 -> Machine 2: distance 12
Job 1, Machine 1 -> Machine 2: distance 5
Job 2, Machine 3 -> Machine 2: distance 9
Job 2, Machine 3 -> Machine 1: distance 12
Job 2, Machine 3 -> Machine 0: distance 19
Job 2, Machine 2 -> Machine 1: distance 3
Job 2, Machine 2 -> Machine 0: distance 10
Job 2, Machine 1 -> Machine 0: distance 7
Job 3, Machine 1 -> Machine 3: distance 7
Job 3, Machine 1 -> Machine 0: distance 10
Job 3, Machine 1 -> Machine 2: distance 19
Job 3, Machine 3 -> Machine 0: distance 3
Job 3, Machine 3 -> Machine 2: distance 12
Job 3, Machine 0 -> Machine 2: distance 9
McCormic linearization
[(0, 1), (0, 0), (3, 0), (3, 1), (2, 1), (2, 0), (1, 0), (1, 1)]
obj:  0.5999999999999999
solutions:  1
+ x(0,0) + 0.09999999999999998x(1,0) 
C:  29.0
x(0,0) = 0.73	 x(0,1) = 22.00	 x(0,2) = 11.73	 x(0,3) = 10.73	 
x(1,0) = 2.73	 x(1,1) = 10.73	 x(1,2) = 15.73	 x(1,3) = 3.73	 
x(2,0) = 22.73	 x(2,1) = 15.73	 x(2,2) = 12.73	 x(2,3) = 3.73	 
x(3,0) = 10.00	 x(3,1) = 0.00	 x(3,2) = 19.00	 x(3,3) = 7.00	 
y(0,1,0) = 0.13	 y(1,0,0) = 0.87	 
y(0,2,0) = 0.64	 y(2,0,0) = 0.36	 
y(0,3,0) = 0.96	 y(3,0,0) = 0.04	 
y(1,2,0) = 0.48	 y(2,1,0) = 0.52	 
y(1,3,0) = 0.74	 y(3,1,0) = 0.26	 
y(2,3,0) = 0.00	 y(3,2,0) = 1.00	 
y(0,1,1) = 0.14	 y(1,0,1) = 0.86	 
y(0,2,1) = 0.03	 y(2,0,1) = 0.97	 
y(0,3,1) = 0.00	 y(3,0,1) = 1.00	 
y(1,2,1) = 0.34	 y(2,1,1) = 0.66	 
y(1,3,1) = 0.16	 y(3,1,1) = 0.84	 
y(2,3,1) = 0.00	 y(3,2,1) = 1.00	 
y(0,1,2) = 0.36	 y(1,0,2) = 0.64	 
y(0,2,2) = 0.39	 y(2,0,2) = 0.61	 
y(0,3,2) = 1.00	 y(3,0,2) = 0.00	 
y(1,2,2) = 0.00	 y(2,1,2) = 1.00	 
y(1,3,2) = 0.43	 y(3,1,2) = 0.57	 
y(2,3,2) = 0.85	 y(3,2,2) = 0.15	 
y(0,1,3) = 0.00	 y(1,0,3) = 1.00	 
y(0,2,3) = 0.09	 y(2,0,3) = 0.91	 
y(0,3,3) = 0.04	 y(3,0,3) = 0.96	 
y(1,2,3) = 0.28	 y(2,1,3) = 0.72	 
y(1,3,3) = 0.26	 y(3,1,3) = 0.74	 
y(2,3,3) = 0.25	 y(3,2,3) = 0.75	 
obj:  0.9174311926605506
solutions:  1
+ 0.09174311926605479x(0,0) + 0.08256880733944957x(3,0) + 0.009174311926605488x(1,0) 
[(0, 1), (0, 0), (3, 0), (3, 1), (2, 1), (2, 0), (1, 0), (1, 1)]
cliques:  1 mip: 97
C:  29.0
x(0,0) = 1.82	 x(0,1) = 22.00	 x(0,2) = 12.82	 x(0,3) = 11.82	 
x(1,0) = 0.82	 x(1,1) = 8.82	 x(1,2) = 13.82	 x(1,3) = 1.82	 
x(2,0) = 22.33	 x(2,1) = 15.33	 x(2,2) = 12.33	 x(2,3) = 3.33	 
x(3,0) = 10.00	 x(3,1) = 0.00	 x(3,2) = 19.00	 x(3,3) = 7.00	 
y(0,1,0) = 0.00	 y(1,0,0) = 1.00	 
y(0,2,0) = 0.68	 y(2,0,0) = 0.32	 
y(0,3,0) = 0.91	 y(3,0,0) = 0.09	 
y(1,2,0) = 0.51	 y(2,1,0) = 0.49	 
y(1,3,0) = 0.66	 y(3,1,0) = 0.34	 
y(2,3,0) = 0.00	 y(3,2,0) = 1.00	 
y(0,1,1) = 0.11	 y(1,0,1) = 0.89	 
y(0,2,1) = 0.01	 y(2,0,1) = 0.99	 
y(0,3,1) = 0.00	 y(3,0,1) = 1.00	 
y(1,2,1) = 0.39	 y(2,1,1) = 0.61	 
y(1,3,1) = 0.08	 y(3,1,1) = 0.92	 
y(2,3,1) = 0.00	 y(3,2,1) = 1.00	 
y(0,1,2) = 0.27	 y(1,0,2) = 0.73	 
y(0,2,2) = 0.29	 y(2,0,2) = 0.71	 
y(0,3,2) = 1.00	 y(3,0,2) = 0.00	 
y(1,2,2) = 0.51	 y(2,1,2) = 0.49	 
y(1,3,2) = 0.49	 y(3,1,2) = 0.51	 
y(2,3,2) = 0.83	 y(3,2,2) = 0.17	 
y(0,1,3) = 0.35	 y(1,0,3) = 0.65	 
y(0,2,3) = 0.02	 y(2,0,3) = 0.98	 
y(0,3,3) = 0.09	 y(3,0,3) = 0.91	 
y(1,2,3) = 0.33	 y(2,1,3) = 0.67	 
y(1,3,3) = 0.34	 y(3,1,3) = 0.66	 
y(2,3,3) = 0.27	 y(3,2,3) = 0.73	 
obj:  0.7815957055966036
solutions:  1
+ 0.01493039964077233x(1,2) + 0.023462056578356538x(3,2) + 0.010103277952402338x(0,2) 
[(1, 2), (3, 2), (0, 0), (3, 0), (0, 2), (3, 1), (2, 1), (2, 2), (1, 0), (1, 1)]
cliques:  1 mip: 131
C:  30.62962962962963
x(0,0) = 0.84	 x(0,1) = 23.63	 x(0,2) = 17.63	 x(0,3) = 16.63	 
x(1,0) = 4.95	 x(1,1) = 17.63	 x(1,2) = 22.63	 x(1,3) = 10.63	 
x(2,0) = 24.98	 x(2,1) = 17.98	 x(2,2) = 14.98	 x(2,3) = 5.98	 
x(3,0) = 10.63	 x(3,1) = 0.63	 x(3,2) = 20.63	 x(3,3) = 7.63	 
y(0,1,0) = 0.30	 y(1,0,0) = 0.70	 
y(0,2,0) = 0.57	 y(2,0,0) = 0.43	 
y(0,3,0) = 0.99	 y(3,0,0) = 0.01	 
y(1,2,0) = 1.00	 y(2,1,0) = 0.00	 
y(1,3,0) = 0.81	 y(3,1,0) = 0.19	 
y(2,3,0) = 0.00	 y(3,2,0) = 1.00	 
y(0,1,1) = 0.39	 y(1,0,1) = 0.61	 
y(0,2,1) = 0.05	 y(2,0,1) = 0.95	 
y(0,3,1) = 0.00	 y(3,0,1) = 1.00	 
y(1,2,1) = 0.21	 y(2,1,1) = 0.79	 
y(1,3,1) = 0.39	 y(3,1,1) = 0.61	 
y(2,3,1) = 0.00	 y(3,2,1) = 1.00	 
y(0,1,2) = 0.39	 y(1,0,2) = 0.61	 
y(0,2,2) = 0.34	 y(2,0,2) = 0.66	 
y(0,3,2) = 0.83	 y(3,0,2) = 0.17	 
y(1,2,2) = 0.21	 y(2,1,2) = 0.79	 
y(1,3,2) = 0.26	 y(3,1,2) = 0.74	 
y(2,3,2) = 0.88	 y(3,2,2) = 0.12	 
y(0,1,3) = 0.39	 y(1,0,3) = 0.61	 
y(0,2,3) = 0.08	 y(2,0,3) = 0.92	 
y(0,3,3) = 0.30	 y(3,0,3) = 0.70	 
y(1,2,3) = 0.14	 y(2,1,3) = 0.86	 
y(1,3,3) = 0.00	 y(3,1,3) = 1.00	 
y(2,3,3) = 0.19	 y(3,2,3) = 0.81	 
obj:  0.9903510640610025
solutions:  1
+ 0.005025125628140705x(0,0) + 0.09045226130653267x(3,0) + 0.0050251256281407x(1,0) 
[(0, 1), (0, 0), (3, 0), (3, 1), (2, 1), (2, 0), (1, 0), (1, 1)]
cliques:  1 mip: 174
C:  33.17974253096916
x(0,0) = 7.94	 x(0,1) = 25.30	 x(0,2) = 19.30	 x(0,3) = 17.94	 
x(1,0) = 11.06	 x(1,1) = 19.06	 x(1,2) = 24.06	 x(1,3) = 12.06	 
x(2,0) = 25.30	 x(2,1) = 18.30	 x(2,2) = 15.30	 x(2,3) = 6.30	 
x(3,0) = 10.00	 x(3,1) = 0.00	 x(3,2) = 19.00	 x(3,3) = 7.00	 
y(0,1,0) = 0.27	 y(1,0,0) = 0.73	 
y(0,2,0) = 0.43	 y(2,0,0) = 0.57	 
y(0,3,0) = 0.33	 y(3,0,0) = 0.67	 
y(1,2,0) = 1.00	 y(2,1,0) = 0.00	 
y(1,3,0) = 0.85	 y(3,1,0) = 0.15	 
y(2,3,0) = 0.00	 y(3,2,0) = 1.00	 
y(0,1,1) = 0.21	 y(1,0,1) = 0.79	 
y(0,2,1) = 0.00	 y(2,0,1) = 1.00	 
y(0,3,1) = 0.00	 y(3,0,1) = 1.00	 
y(1,2,1) = 0.18	 y(2,1,1) = 0.82	 
y(1,3,1) = 0.00	 y(3,1,1) = 1.00	 
y(2,3,1) = 0.00	 y(3,2,1) = 1.00	 
y(0,1,2) = 0.91	 y(1,0,2) = 0.09	 
y(0,2,2) = 0.00	 y(2,0,2) = 1.00	 
y(0,3,2) = 0.29	 y(3,0,2) = 0.71	 
y(1,2,2) = 0.18	 y(2,1,2) = 0.82	 
y(1,3,2) = 0.48	 y(3,1,2) = 0.52	 
y(2,3,2) = 0.97	 y(3,2,2) = 0.03	 
y(0,1,3) = 0.33	 y(1,0,3) = 0.67	 
y(0,2,3) = 0.13	 y(2,0,3) = 0.87	 
y(0,3,3) = 0.23	 y(3,0,3) = 0.77	 
y(1,2,3) = 0.10	 y(2,1,3) = 0.90	 
y(1,3,3) = -0.00	 y(3,1,3) = 1.00	 
y(2,3,3) = 0.45	 y(3,2,3) = 0.55	 
obj:  0.9727165492225335
solutions:  1
+ 0.0055248618784530384x(1,2) + 0.044198895027624294x(3,2) 
[(1, 2), (3, 2), (0, 0), (3, 0), (0, 2), (3, 1), (2, 1), (2, 2), (1, 0), (1, 1)]
cliques:  1 mip: 200
C:  34.333333333333336
x(0,0) = 7.33	 x(0,1) = 26.00	 x(0,2) = 18.33	 x(0,3) = 17.33	 
x(1,0) = 3.33	 x(1,1) = 11.33	 x(1,2) = 16.33	 x(1,3) = 4.33	 
x(2,0) = 26.00	 x(2,1) = 19.00	 x(2,2) = 16.00	 x(2,3) = 0.00	 
x(3,0) = 10.46	 x(3,1) = 0.00	 x(3,2) = 24.33	 x(3,3) = 7.00	 
y(0,1,0) = 0.16	 y(1,0,0) = 0.84	 
y(0,2,0) = 0.47	 y(2,0,0) = 0.53	 
y(0,3,0) = 0.66	 y(3,0,0) = 0.34	 
y(1,2,0) = 1.00	 y(2,1,0) = 0.00	 
y(1,3,0) = 1.00	 y(3,1,0) = 0.00	 
y(2,3,0) = 0.00	 y(3,2,0) = 1.00	 
y(0,1,1) = 0.00	 y(1,0,1) = 1.00	 
y(0,2,1) = 0.00	 y(2,0,1) = 1.00	 
y(0,3,1) = 0.00	 y(3,0,1) = 1.00	 
y(1,2,1) = 0.42	 y(2,1,1) = 0.58	 
y(1,3,1) = 0.26	 y(3,1,1) = 0.74	 
y(2,3,1) = 0.00	 y(3,2,1) = 1.00	 
y(0,1,2) = 0.31	 y(1,0,2) = 0.69	 
y(0,2,2) = 0.18	 y(2,0,2) = 0.82	 
y(0,3,2) = 1.00	 y(3,0,2) = 0.00	 
y(1,2,2) = 0.42	 y(2,1,2) = 0.58	 
y(1,3,2) = 1.00	 y(3,1,2) = 0.00	 
y(2,3,2) = 0.76	 y(3,2,2) = 0.24	 
y(0,1,3) = 0.19	 y(1,0,3) = 0.81	 
y(0,2,3) = 0.40	 y(2,0,3) = 0.60	 
y(0,3,3) = 0.53	 y(3,0,3) = 0.47	 
y(1,2,3) = 0.15	 y(2,1,3) = 0.85	 
y(1,3,3) = 0.24	 y(3,1,3) = 0.76	 
y(2,3,3) = 0.62	 y(3,2,3) = 0.38	 
obj:  0.46246246246246253
solutions:  1
+ 0.06306306306306307x(1,3) + 0.027027027027027025x(3,3) + 0.06552006552006552x(2,3) 
[(0, 0), (1, 3), (3, 3), (3, 0), (1, 0), (3, 1), (2, 1), (2, 3), (0, 3), (1, 1)]
cliques:  1 mip: 182
C:  35.0
x(0,0) = 5.33	 x(0,1) = 25.62	 x(0,2) = 18.56	 x(0,3) = 15.62	 
x(1,0) = 6.00	 x(1,1) = 14.00	 x(1,2) = 20.85	 x(1,3) = 7.00	 
x(2,0) = 24.46	 x(2,1) = 17.46	 x(2,2) = 14.46	 x(2,3) = 5.46	 
x(3,0) = 10.43	 x(3,1) = 0.43	 x(3,2) = 22.99	 x(3,3) = 7.43	 
y(0,1,0) = 0.16	 y(1,0,0) = 0.84	 
y(0,2,0) = 0.63	 y(2,0,0) = 0.37	 
y(0,3,0) = 0.62	 y(3,0,0) = 0.38	 
y(1,2,0) = 1.00	 y(2,1,0) = 0.00	 
y(1,3,0) = 1.00	 y(3,1,0) = 0.00	 
y(2,3,0) = 0.00	 y(3,2,0) = 1.00	 
y(0,1,1) = 0.00	 y(1,0,1) = 1.00	 
y(0,2,1) = 0.00	 y(2,0,1) = 1.00	 
y(0,3,1) = 0.00	 y(3,0,1) = 1.00	 
y(1,2,1) = 0.40	 y(2,1,1) = 0.60	 
y(1,3,1) = 0.16	 y(3,1,1) = 0.84	 
y(2,3,1) = 0.00	 y(3,2,1) = 1.00	 
y(0,1,2) = 0.53	 y(1,0,2) = 0.47	 
y(0,2,2) = 0.06	 y(2,0,2) = 0.94	 
y(0,3,2) = 0.91	 y(3,0,2) = 0.09	 
y(1,2,2) = 0.17	 y(2,1,2) = 0.83	 
y(1,3,2) = 0.75	 y(3,1,2) = 0.25	 
y(2,3,2) = 0.89	 y(3,2,2) = 0.11	 
y(0,1,3) = 0.15	 y(1,0,3) = 0.85	 
y(0,2,3) = 0.06	 y(2,0,3) = 0.94	 
y(0,3,3) = 0.38	 y(3,0,3) = 0.62	 
y(1,2,3) = 0.23	 y(2,1,3) = 0.77	 
y(1,3,3) = 0.14	 y(3,1,3) = 0.86	 
y(2,3,3) = 0.73	 y(3,2,3) = 0.27	 
obj:  0.890616943810382
solutions:  1
+ 0.006167400881057264x(1,3) + 0.10102790014684285x(3,3) + 0.01527165932452273x(2,3) + 0.0008810572687224964x(0,3) 
[(1, 2), (1, 3), (3, 3), (0, 2), (3, 1), (2, 1), (2, 3), (2, 2), (0, 3), (1, 1)]
cliques:  1 mip: 192
C:  34.99999999999999
x(0,0) = 2.07	 x(0,1) = 23.18	 x(0,2) = 16.59	 x(0,3) = 13.05	 
x(1,0) = 5.33	 x(1,1) = 14.51	 x(1,2) = 19.51	 x(1,3) = 7.51	 
x(2,0) = 33.88	 x(2,1) = 26.88	 x(2,2) = 22.83	 x(2,3) = 11.27	 
x(3,0) = 10.72	 x(3,1) = 0.62	 x(3,2) = 23.38	 x(3,3) = 7.62	 
y(0,1,0) = 0.18	 y(1,0,0) = 0.82	 
y(0,2,0) = 0.86	 y(2,0,0) = 0.14	 
y(0,3,0) = 0.93	 y(3,0,0) = 0.07	 
y(1,2,0) = 1.00	 y(2,1,0) = 0.00	 
y(1,3,0) = 0.60	 y(3,1,0) = 0.40	 
y(2,3,0) = 0.00	 y(3,2,0) = 1.00	 
y(0,1,1) = 0.08	 y(1,0,1) = 0.92	 
y(0,2,1) = 0.41	 y(2,0,1) = 0.59	 
y(0,3,1) = 0.00	 y(3,0,1) = 1.00	 
y(1,2,1) = 0.68	 y(2,1,1) = 0.32	 
y(1,3,1) = 0.38	 y(3,1,1) = 0.62	 
y(2,3,1) = 0.00	 y(3,2,1) = 1.00	 
y(0,1,2) = 0.68	 y(1,0,2) = 0.32	 
y(0,2,2) = 0.37	 y(2,0,2) = 0.63	 
y(0,3,2) = 0.99	 y(3,0,2) = 0.01	 
y(1,2,2) = 0.44	 y(2,1,2) = 0.56	 
y(1,3,2) = 0.80	 y(3,1,2) = 0.20	 
y(2,3,2) = 0.86	 y(3,2,2) = 0.14	 
y(0,1,3) = 0.13	 y(1,0,3) = 0.87	 
y(0,2,3) = 0.31	 y(2,0,3) = 0.69	 
y(0,3,3) = 0.12	 y(3,0,3) = 0.88	 
y(1,2,3) = 0.40	 y(2,1,3) = 0.60	 
y(1,3,3) = 0.38	 y(3,1,3) = 0.62	 
y(2,3,3) = 0.51	 y(3,2,3) = 0.49	 
obj:  0.9947190686383198
solutions:  1
+ 0.0061224489795918356x(1,3) + 0.10010465724751438x(3,3) + 0.014599686028257465x(2,3) + 0.0016221873364730506x(0,3) 
[(0, 1), (1, 3), (3, 3), (3, 1), (2, 1), (2, 3), (0, 3), (1, 1)]
cliques:  1 mip: 0
C:  35.0
x(0,0) = 2.08	 x(0,1) = 23.20	 x(0,2) = 16.61	 x(0,3) = 13.05	 
x(1,0) = 5.35	 x(1,1) = 14.51	 x(1,2) = 19.51	 x(1,3) = 7.51	 
x(2,0) = 33.87	 x(2,1) = 26.87	 x(2,2) = 22.88	 x(2,3) = 11.64	 
x(3,0) = 10.72	 x(3,1) = 0.62	 x(3,2) = 23.37	 x(3,3) = 7.62	 
y(0,1,0) = 0.18	 y(1,0,0) = 0.82	 
y(0,2,0) = 0.86	 y(2,0,0) = 0.14	 
y(0,3,0) = 0.93	 y(3,0,0) = 0.07	 
y(1,2,0) = 1.00	 y(2,1,0) = 0.00	 
y(1,3,0) = 0.60	 y(3,1,0) = 0.40	 
y(2,3,0) = 0.00	 y(3,2,0) = 1.00	 
y(0,1,1) = 0.08	 y(1,0,1) = 0.92	 
y(0,2,1) = 0.41	 y(2,0,1) = 0.59	 
y(0,3,1) = 0.00	 y(3,0,1) = 1.00	 
y(1,2,1) = 0.68	 y(2,1,1) = 0.32	 
y(1,3,1) = 0.38	 y(3,1,1) = 0.62	 
y(2,3,1) = 0.00	 y(3,2,1) = 1.00	 
y(0,1,2) = 0.68	 y(1,0,2) = 0.32	 
y(0,2,2) = 0.37	 y(2,0,2) = 0.63	 
y(0,3,2) = 0.99	 y(3,0,2) = 0.01	 
y(1,2,2) = 0.44	 y(2,1,2) = 0.56	 
y(1,3,2) = 0.80	 y(3,1,2) = 0.20	 
y(2,3,2) = 0.85	 y(3,2,2) = 0.15	 
y(0,1,3) = 0.13	 y(1,0,3) = 0.87	 
y(0,2,3) = 0.33	 y(2,0,3) = 0.67	 
y(0,3,3) = 0.12	 y(3,0,3) = 0.88	 
y(1,2,3) = 0.41	 y(2,1,3) = 0.59	 
y(1,3,3) = 0.38	 y(3,1,3) = 0.62	 
y(2,3,3) = 0.50	 y(3,2,3) = 0.50	 
obj:  0.9980379492525205
solutions:  1
+ 0.006306306306306308x(1,3) + 0.11081081081081084x(3,3) + 0.008108108108108093x(2,3) + 0.0009009009009008875x(0,3) 
[(0, 1), (1, 3), (3, 3), (3, 1), (2, 1), (2, 3), (0, 3), (1, 1)]
cliques:  1 mip: 0
C:  35.0
x(0,0) = 2.33	 x(0,1) = 23.15	 x(0,2) = 16.67	 x(0,3) = 13.05	 
x(1,0) = 5.53	 x(1,1) = 14.62	 x(1,2) = 19.62	 x(1,3) = 7.62	 
x(2,0) = 33.95	 x(2,1) = 26.95	 x(2,2) = 22.98	 x(2,3) = 11.39	 
x(3,0) = 10.69	 x(3,1) = 0.65	 x(3,2) = 23.56	 x(3,3) = 7.65	 
y(0,1,0) = 0.18	 y(1,0,0) = 0.82	 
y(0,2,0) = 0.84	 y(2,0,0) = 0.16	 
y(0,3,0) = 0.90	 y(3,0,0) = 0.10	 
y(1,2,0) = 1.00	 y(2,1,0) = 0.00	 
y(1,3,0) = 0.63	 y(3,1,0) = 0.37	 
y(2,3,0) = 0.00	 y(3,2,0) = 1.00	 
y(0,1,1) = 0.07	 y(1,0,1) = 0.93	 
y(0,2,1) = 0.42	 y(2,0,1) = 0.58	 
y(0,3,1) = 0.00	 y(3,0,1) = 1.00	 
y(1,2,1) = 0.68	 y(2,1,1) = 0.32	 
y(1,3,1) = 0.39	 y(3,1,1) = 0.61	 
y(2,3,1) = 0.00	 y(3,2,1) = 1.00	 
y(0,1,2) = 0.67	 y(1,0,2) = 0.33	 
y(0,2,2) = 0.38	 y(2,0,2) = 0.62	 
y(0,3,2) = 0.99	 y(3,0,2) = 0.01	 
y(1,2,2) = 0.44	 y(2,1,2) = 0.56	 
y(1,3,2) = 0.82	 y(3,1,2) = 0.18	 
y(2,3,2) = 0.86	 y(3,2,2) = 0.14	 
y(0,1,3) = 0.14	 y(1,0,3) = 0.86	 
y(0,2,3) = 0.32	 y(2,0,3) = 0.68	 
y(0,3,3) = 0.12	 y(3,0,3) = 0.88	 
y(1,2,3) = 0.40	 y(2,1,3) = 0.60	 
y(1,3,3) = 0.39	 y(3,1,3) = 0.61	 
y(2,3,3) = 0.51	 y(3,2,3) = 0.49	 
obj:  0.9999999999999999
erro
[(0, 1), (1, 3), (3, 3), (3, 1), (2, 1), (2, 3), (0, 3), (1, 1)]
cliques:  0 mip: 0
iterações: 9 cortes cliques encontrados: 9 mip: 1022 objective:  35.0
Coin0506I Presolve 157 (-171) rows, 90 (-71) columns and 490 (-260) elements
Clp1000I sum of infeasibilities 1.79124e-08 - average 1.14092e-10, 0 fixed columns
Coin0506I Presolve 157 (0) rows, 90 (0) columns and 490 (0) elements
Clp0029I End of values pass after 90 iterations
Clp0000I Optimal - objective value 29
Clp0000I Optimal - objective value 29
Coin0511I After Postsolve, objective 29, infeasibilities - dual 0 (0), primal 0 (0)
Clp0000I Optimal - objective value 29
Clp0000I Optimal - objective value 29
Clp0000I Optimal - objective value 29
Coin0511I After Postsolve, objective 29, infeasibilities - dual 0 (0), primal 0 (0)
Clp0032I Optimal objective 29 - 0 iterations time 0.022, Presolve 0.00, Idiot 0.01
Coin3009W Conflict graph built in 0.000 seconds, density: 0.070%
